 vasp.6.1.2 22Jul20 (build Jun  1 2021 15:15:33) complex
 executed on             LinuxPGI date 2024.07.01  01:39:41

 INCAR:
 POTCAR:    PAW_PBE Ga 08Apr2002
 POTCAR:    PAW_PBE N 08Apr2002
 POTCAR:    PAW_PBE Ga 08Apr2002
   VRHFIN =Ga: s2p1

   TITEL  = PAW_PBE Ga 08Apr2002
   POMASS =   69.723; ZVAL   =    3.000    mass and valenz
   ENMAX  =  134.678; ENMIN  =  101.009 eV

   TITEL  = PAW_PBE N 08Apr2002
   POMASS =   14.001; ZVAL   =    5.000    mass and valenz
   ENMAX  =  400.000; ENMIN  =  300.000 eV

 Optimization of the real space projectors (new method)

 maximal supplied QI-value         = 14.36
 optimisation between [QCUT,QGAM] = [  9.48, 19.10] = [ 25.16,102.17] Ry
 Optimized for a Real-space Cutoff    1.43 Angstroem

   l    n(q)    QCUT    max X(q) W(low)/X(q) W(high)/X(q)  e(spline)
   0      8     9.479    81.156    0.16E-03    0.65E-04    0.73E-07
   0      8     9.479    65.205    0.16E-03    0.69E-04    0.73E-07
   1      8     9.479    44.874    0.72E-04    0.49E-03    0.13E-06
   1      8     9.479    25.010    0.90E-04    0.49E-03    0.14E-06
   2      7     9.479     5.217    0.28E-03    0.20E-03    0.43E-07
 Optimization of the real space projectors (new method)

 maximal supplied QI-value         = 25.13
 optimisation between [QCUT,QGAM] = [  9.55, 19.10] = [ 25.54,102.17] Ry
 Optimized for a Real-space Cutoff    1.82 Angstroem

   l    n(q)    QCUT    max X(q) W(low)/X(q) W(high)/X(q)  e(spline)
   0     10     9.551    79.467    0.50E-04    0.71E-04    0.84E-06
   0     10     9.551    66.151    0.50E-04    0.71E-04    0.83E-06
   1     10     9.551     6.738    0.44E-03    0.12E-02    0.55E-05
   1     10     9.551     5.013    0.43E-03    0.12E-02    0.54E-05
|               ----> ADVICE to this user running VASP <----                  |
|     You enforced a specific xc type in the INCAR file but a different       |
|     type was found in the POTCAR file.                                      |
|     I HOPE YOU KNOW WHAT YOU ARE DOING!                                     |

  PAW_PBE Ga 08Apr2002                  :
  PAW_PBE N 08Apr2002                   :

 POSCAR: Ga  N
  positions in cartesian coordinates
 exchange correlation table for  LEXCH =        9
   RHO(1)=    0.500       N(1)  =     2000
   RHO(2)=  100.500       N(2)  =     4000

 ion  position               nearest neighbor table
   1  0.000  0.237  0.609-  55 2.00  50 2.00  82 2.00  33 3.27  17 3.27   4 3.27  38 3.27   6 3.27
                            39 3.27   7 3.27
   2  0.000  0.206  0.422-  53 2.00  56 2.00  51 2.00  83 2.00  18 3.27  34 3.27   3 3.27   6 3.27
                            38 3.27   8 3.27  37 3.27   5 3.27  40 3.27
   3  0.000  0.049  0.484-  54 2.00  53 2.00  52 2.00  84 2.00  19 3.27  35 3.27   2 3.27  12 3.27
                             8 3.27   7 3.27  39 3.27  40 3.27  38 3.27   6 3.27  13 3.27  45 3.27
   4  0.000  0.393  0.547-  55 2.00  62 2.00  49 2.00  81 2.00  20 3.27  36 3.27   1 3.27  11 3.27
                             5 3.27  37 3.27  15 3.27   6 3.27  38 3.27  47 3.27
   5  0.167  0.378  0.453-  72 2.00  49 2.00  60 2.00  56 2.00  21 3.27  20 3.27  18 3.27  27 3.27
                             6 3.27  16 3.27   4 3.27  11 3.27   2 3.27  37 3.27
   6  0.167  0.221  0.516-  69 2.00  50 2.00  49 2.00  53 2.00  22 3.27  18 3.27  17 3.27  20 3.27
                            19 3.27   7 3.27   5 3.27   2 3.27   1 3.27   4 3.27   3 3.27  38 3.27
   7  0.167  0.065  0.578-  70 2.00  50 2.00  54 2.00  23 3.27  19 3.27  28 3.27  17 3.27   6 3.27
                             3 3.27  12 3.27   1 3.27  39 3.27
   8  0.167  0.034  0.391-  52 2.00  51 2.00  24 3.27  19 3.27  18 3.27  13 3.27   3 3.27   2 3.27
                            40 3.27
   9  0.000  0.737  0.609-  63 2.00  58 2.00  90 2.00  41 3.27  25 3.27  12 3.27  46 3.27  14 3.27
                            47 3.27  15 3.27
  10  0.000  0.706  0.422-  61 2.00  64 2.00  59 2.00  91 2.00  26 3.27  42 3.27  11 3.27  14 3.27
                            46 3.27  16 3.27  45 3.27  13 3.27  48 3.27
  11  0.000  0.549  0.484-  62 2.00  61 2.00  60 2.00  92 2.00  27 3.27  43 3.27   4 3.27  10 3.27
                            15 3.27  16 3.27  47 3.27  48 3.27  14 3.27  46 3.27   5 3.27  37 3.27
  12  0.000  0.893  0.547-  63 2.00  54 2.00  57 2.00  89 2.00  28 3.27  44 3.27   3 3.27   9 3.27
                            13 3.27  45 3.27  39 3.27  14 3.27   7 3.27  46 3.27
  13  0.167  0.878  0.453-  80 2.00  57 2.00  52 2.00  64 2.00  29 3.27  28 3.27  19 3.27  26 3.27
                             8 3.27  14 3.27  12 3.27   3 3.27  10 3.27  45 3.27
  14  0.167  0.721  0.516-  77 2.00  58 2.00  57 2.00  61 2.00  30 3.27  26 3.27  25 3.27  28 3.27
                            27 3.27  15 3.27  13 3.27  10 3.27   9 3.27  12 3.27  11 3.27  46 3.27
  15  0.167  0.565  0.578-  78 2.00  58 2.00  62 2.00  31 3.27  27 3.27  25 3.27  20 3.27  14 3.27
                            11 3.27   9 3.27   4 3.27  47 3.27
  16  0.167  0.534  0.391-  60 2.00  59 2.00  32 3.27  27 3.27  26 3.27   5 3.27  11 3.27  10 3.27
                            48 3.27
  17  0.333  0.237  0.609-  50 2.00  71 2.00  66 2.00   1 3.27   6 3.27   7 3.27  20 3.27  22 3.27
                            23 3.27  33 3.27
  18  0.333  0.206  0.422-  51 2.00  69 2.00  72 2.00  67 2.00   2 3.27   6 3.27   5 3.27   8 3.27
                            19 3.27  22 3.27  21 3.27  24 3.27  34 3.27
  19  0.333  0.049  0.484-  52 2.00  70 2.00  69 2.00  68 2.00   3 3.27   7 3.27   8 3.27   6 3.27
                            13 3.27  18 3.27  28 3.27  24 3.27  23 3.27  22 3.27  29 3.27  35 3.27
  20  0.333  0.393  0.547-  49 2.00  71 2.00  78 2.00  65 2.00   4 3.27   5 3.27   6 3.27  15 3.27
                            17 3.27  27 3.27  21 3.27  22 3.27  31 3.27  36 3.27
  21  0.500  0.378  0.453-  65 2.00  76 2.00  72 2.00  88 2.00   5 3.27  37 3.27  32 3.27  22 3.27
                            36 3.27  20 3.27  34 3.27  27 3.27  18 3.27  43 3.27
  22  0.500  0.221  0.516-  66 2.00  65 2.00  69 2.00  85 2.00   6 3.27  38 3.27  23 3.27  21 3.27
                            18 3.27  33 3.27  34 3.27  17 3.27  20 3.27  35 3.27  36 3.27  19 3.27
  23  0.500  0.065  0.578-  66 2.00  70 2.00  86 2.00  39 3.27   7 3.27  22 3.27  19 3.27  35 3.27
                            44 3.27  33 3.27  17 3.27  28 3.27
  24  0.500  0.034  0.391-  68 2.00  67 2.00   8 3.27  40 3.27  29 3.27  35 3.27  19 3.27  18 3.27
                            34 3.27
  25  0.333  0.737  0.609-  58 2.00  79 2.00  74 2.00   9 3.27  14 3.27  15 3.27  28 3.27  30 3.27
                            31 3.27  41 3.27
  26  0.333  0.706  0.422-  59 2.00  77 2.00  80 2.00  75 2.00  10 3.27  14 3.27  13 3.27  16 3.27
                            27 3.27  30 3.27  29 3.27  32 3.27  42 3.27
  27  0.333  0.549  0.484-  60 2.00  78 2.00  77 2.00  76 2.00  11 3.27  15 3.27  16 3.27   5 3.27
                            14 3.27  20 3.27  26 3.27  31 3.27  32 3.27  21 3.27  30 3.27  43 3.27
  28  0.333  0.893  0.547-  57 2.00  79 2.00  70 2.00  73 2.00  12 3.27  13 3.27   7 3.27  14 3.27
                            19 3.27  25 3.27  29 3.27  23 3.27  30 3.27  44 3.27
  29  0.500  0.878  0.453-  73 2.00  68 2.00  80 2.00  96 2.00  13 3.27  45 3.27  30 3.27  24 3.27
                            44 3.27  28 3.27  35 3.27  42 3.27  19 3.27  26 3.27
  30  0.500  0.721  0.516-  74 2.00  73 2.00  77 2.00  93 2.00  14 3.27  46 3.27  31 3.27  29 3.27
                            26 3.27  41 3.27  42 3.27  25 3.27  28 3.27  43 3.27  44 3.27  27 3.27
  31  0.500  0.565  0.578-  74 2.00  78 2.00  94 2.00  47 3.27  15 3.27  30 3.27  27 3.27  43 3.27
                            25 3.27  36 3.27  41 3.27  20 3.27
  32  0.500  0.534  0.391-  76 2.00  75 2.00  16 3.27  48 3.27  21 3.27  43 3.27  27 3.27  26 3.27
                            42 3.27
  33  0.667  0.237  0.609-  82 2.00  87 2.00  66 2.00   1 3.27  38 3.27  39 3.27  36 3.27  22 3.27
                            23 3.27  17 3.27
  34  0.667  0.206  0.422-  83 2.00  85 2.00  88 2.00  67 2.00   2 3.27  38 3.27  37 3.27  40 3.27
                            35 3.27  22 3.27  21 3.27  24 3.27  18 3.27
  35  0.667  0.049  0.484-  84 2.00  86 2.00  85 2.00  68 2.00   3 3.27  39 3.27  40 3.27  38 3.27
                            45 3.27  44 3.27  34 3.27  23 3.27  24 3.27  22 3.27  29 3.27  19 3.27
  36  0.667  0.393  0.547-  81 2.00  87 2.00  94 2.00  65 2.00   4 3.27  37 3.27  38 3.27  47 3.27
                            43 3.27  33 3.27  21 3.27  31 3.27  22 3.27  20 3.27
  37  0.833  0.378  0.453-  88 2.00  81 2.00  92 2.00  56 2.00  21 3.27  36 3.27  34 3.27  43 3.27
                            38 3.27  48 3.27   4 3.27   2 3.27  11 3.27   5 3.27
  38  0.833  0.221  0.516-  85 2.00  82 2.00  81 2.00  53 2.00  22 3.27  33 3.27  34 3.27  35 3.27
                            36 3.27  37 3.27  39 3.27   2 3.27   1 3.27   4 3.27   3 3.27   6 3.27
  39  0.833  0.065  0.578-  86 2.00  82 2.00  54 2.00  23 3.27  35 3.27  44 3.27  33 3.27  38 3.27
                             3 3.27   1 3.27  12 3.27   7 3.27
  40  0.833  0.034  0.391-  84 2.00  83 2.00  24 3.27  35 3.27  34 3.27  45 3.27   3 3.27   2 3.27
                             8 3.27
  41  0.667  0.737  0.609-  90 2.00  95 2.00  74 2.00   9 3.27  46 3.27  47 3.27  44 3.27  30 3.27
                            31 3.27  25 3.27
  42  0.667  0.706  0.422-  91 2.00  93 2.00  96 2.00  75 2.00  10 3.27  46 3.27  45 3.27  48 3.27
                            43 3.27  30 3.27  29 3.27  32 3.27  26 3.27
  43  0.667  0.549  0.484-  92 2.00  94 2.00  93 2.00  76 2.00  11 3.27  47 3.27  48 3.27  37 3.27
                            46 3.27  42 3.27  36 3.27  31 3.27  32 3.27  21 3.27  30 3.27  27 3.27
  44  0.667  0.893  0.547-  89 2.00  95 2.00  86 2.00  73 2.00  12 3.27  45 3.27  39 3.27  46 3.27
                            35 3.27  41 3.27  29 3.27  30 3.27  23 3.27  28 3.27
  45  0.833  0.878  0.453-  96 2.00  89 2.00  84 2.00  64 2.00  29 3.27  44 3.27  42 3.27  35 3.27
                            40 3.27  46 3.27  12 3.27  10 3.27   3 3.27  13 3.27
  46  0.833  0.721  0.516-  93 2.00  90 2.00  89 2.00  61 2.00  30 3.27  41 3.27  42 3.27  43 3.27
                            44 3.27  45 3.27  47 3.27  10 3.27   9 3.27  12 3.27  11 3.27  14 3.27
  47  0.833  0.565  0.578-  94 2.00  90 2.00  62 2.00  31 3.27  43 3.27  36 3.27  41 3.27  46 3.27
                            11 3.27   9 3.27   4 3.27  15 3.27
  48  0.833  0.534  0.391-  92 2.00  91 2.00  32 3.27  43 3.27  42 3.27  37 3.27  11 3.27  10 3.27
                            16 3.27
  49  0.167  0.346  0.516-  20 2.00   5 2.00   6 2.00   4 2.00
  50  0.167  0.190  0.578-  17 2.00   6 2.00   7 2.00   1 2.00
  51  0.167  0.159  0.391-  18 2.00   8 2.00   2 2.00
  52  0.167  0.003  0.453-  19 2.00   8 2.00  13 2.00   3 2.00
  53  0.000  0.174  0.484-   2 2.00   3 2.00   6 2.00  38 2.00
  54  0.000  0.018  0.547-   3 2.00  12 2.00   7 2.00  39 2.00
  55  0.000  0.362  0.609-   4 2.00   1 2.00
  56  0.000  0.331  0.422-   2 2.00   5 2.00  37 2.00
  57  0.167  0.846  0.516-  28 2.00  13 2.00  14 2.00  12 2.00
  58  0.167  0.690  0.578-  25 2.00  14 2.00  15 2.00   9 2.00
[...]

 FORCES acting on ions
    electron-ion (+dipol)            ewald-force                    non-local-force                 convergence-correction
   0.712E-02 -.115E+02 -.383E+03   -.633E-02 0.149E+02 0.380E+03   0.584E-03 -.348E+01 0.238E+01   -.427E-03 0.202E-01 0.185E-01
   0.222E-02 0.188E+02 0.290E+03   -.929E-03 -.185E+02 -.292E+03   -.832E-04 0.103E+00 -.288E+00   -.101E-02 0.836E-03 0.252E-01
   0.592E-02 0.126E+02 0.562E+02   -.557E-02 -.119E+02 -.581E+02   -.801E-04 -.493E+00 0.108E+01   -.153E-03 -.152E-02 0.367E-01
   0.169E-01 -.274E+02 -.186E+03   -.149E-01 0.264E+02 0.187E+03   -.191E-02 0.973E+00 -.100E+01   -.671E-03 0.468E-03 0.468E-01
   0.325E-02 0.805E+01 0.191E+03   -.512E-03 -.960E+01 -.193E+03   -.155E-03 0.417E+00 0.909E-01   -.208E-02 0.951E-02 0.337E-01
   0.692E-02 0.529E+00 -.700E+02   -.585E-02 0.318E+00 0.671E+02   -.186E-03 -.540E+00 0.221E+01   -.501E-03 0.536E-02 0.392E-01
   0.470E-02 -.103E+02 -.307E+03   -.485E-02 0.114E+02 0.304E+03   0.213E-02 -.105E+01 0.320E+01   0.124E-03 -.747E-02 0.282E-01
   0.209E-02 0.821E+02 0.406E+03   -.141E-02 -.775E+02 -.404E+03   -.208E-03 -.289E+01 -.276E+01   -.181E-03 -.650E-02 0.134E-01
   -.301E-02 -.115E+02 -.383E+03   0.322E-02 0.149E+02 0.380E+03   -.140E-02 -.347E+01 0.239E+01   -.898E-06 0.284E-01 0.166E-01
   -.153E-03 0.188E+02 0.290E+03   -.906E-03 -.185E+02 -.292E+03   0.812E-04 0.103E+00 -.288E+00   0.842E-03 0.146E-02 0.238E-01
   -.563E-03 0.125E+02 0.562E+02   0.628E-03 -.119E+02 -.581E+02   0.634E-04 -.491E+00 0.107E+01   -.185E-04 0.579E-02 0.325E-01
   -.467E-02 -.274E+02 -.186E+03   0.360E-02 0.264E+02 0.187E+03   0.419E-02 0.958E+00 -.996E+00   0.211E-03 -.308E-02 0.513E-01
   0.183E-02 0.805E+01 0.191E+03   -.568E-02 -.960E+01 -.193E+03   0.138E-03 0.417E+00 0.906E-01   0.276E-02 0.299E-03 0.342E-01
   0.862E-02 0.499E+00 -.700E+02   -.860E-02 0.344E+00 0.671E+02   -.211E-03 -.540E+00 0.221E+01   0.821E-03 0.101E-01 0.369E-01
   0.223E-01 -.103E+02 -.307E+03   -.187E-01 0.114E+02 0.304E+03   -.436E-02 -.105E+01 0.320E+01   0.740E-04 0.110E-02 0.257E-01
   -.549E-03 0.820E+02 0.406E+03   -.233E-03 -.775E+02 -.404E+03   0.194E-03 -.289E+01 -.276E+01   0.352E-03 0.265E-02 0.114E-01
   -.131E-01 -.115E+02 -.383E+03   0.120E-01 0.149E+02 0.380E+03   0.966E-03 -.347E+01 0.238E+01   0.386E-03 0.199E-01 0.187E-01
   0.480E-03 0.188E+02 0.290E+03   -.241E-03 -.185E+02 -.292E+03   -.170E-04 0.103E+00 -.288E+00   -.198E-03 -.106E-02 0.256E-01
   0.206E-02 0.126E+02 0.562E+02   -.200E-02 -.119E+02 -.581E+02   -.720E-04 -.491E+00 0.107E+01   0.133E-03 -.248E-02 0.368E-01
   -.107E-01 -.274E+02 -.186E+03   0.993E-02 0.264E+02 0.187E+03   0.125E-02 0.977E+00 -.100E+01   0.359E-03 0.778E-03 0.472E-01
   -.221E-02 0.805E+01 0.191E+03   0.424E-04 -.960E+01 -.193E+03   0.117E-03 0.417E+00 0.909E-01   0.165E-02 0.989E-02 0.340E-01
   -.540E-02 0.527E+00 -.700E+02   0.417E-02 0.320E+00 0.671E+02   0.769E-04 -.541E+00 0.221E+01   0.570E-03 0.542E-02 0.396E-01
   -.355E-02 -.103E+02 -.307E+03   0.402E-02 0.114E+02 0.304E+03   -.224E-02 -.105E+01 0.320E+01   0.790E-04 -.778E-02 0.284E-01
   -.178E-02 0.821E+02 0.406E+03   0.120E-02 -.775E+02 -.404E+03   0.143E-03 -.289E+01 -.276E+01   0.244E-03 -.688E-02 0.135E-01
   0.640E-02 -.115E+02 -.383E+03   -.653E-02 0.150E+02 0.380E+03   -.960E-03 -.347E+01 0.239E+01   0.586E-03 0.302E-01 0.165E-01
   -.751E-03 0.188E+02 0.290E+03   -.916E-06 -.185E+02 -.292E+03   0.442E-04 0.103E+00 -.288E+00   0.640E-03 0.392E-02 0.235E-01
   0.141E-02 0.126E+02 0.563E+02   -.114E-02 -.119E+02 -.581E+02   -.385E-04 -.491E+00 0.107E+01   0.191E-03 0.670E-02 0.322E-01
   -.736E-03 -.274E+02 -.186E+03   0.438E-04 0.264E+02 0.187E+03   0.170E-05 0.946E+00 -.102E+01   0.633E-03 -.372E-02 0.522E-01
   -.325E-02 0.805E+01 0.191E+03   0.566E-02 -.960E+01 -.193E+03   -.818E-04 0.417E+00 0.906E-01   -.164E-02 -.231E-03 0.340E-01
   -.740E-02 0.500E+00 -.700E+02   0.755E-02 0.343E+00 0.671E+02   0.189E-03 -.540E+00 0.221E+01   -.357E-03 0.105E-01 0.369E-01
   -.238E-01 -.103E+02 -.307E+03   0.215E-01 0.114E+02 0.304E+03   0.552E-02 -.105E+01 0.320E+01   0.297E-04 0.109E-02 0.258E-01
   0.280E-03 0.820E+02 0.406E+03   0.150E-03 -.775E+02 -.404E+03   -.129E-03 -.289E+01 -.276E+01   -.126E-03 0.309E-02 0.113E-01
   0.568E-02 -.115E+02 -.383E+03   -.550E-02 0.149E+02 0.380E+03   -.144E-02 -.348E+01 0.238E+01   0.414E-04 0.217E-01 0.186E-01
   -.270E-02 0.188E+02 0.290E+03   0.117E-02 -.185E+02 -.292E+03   0.998E-04 0.103E+00 -.288E+00   0.121E-02 0.318E-03 0.253E-01
   -.778E-02 0.126E+02 0.562E+02   0.741E-02 -.119E+02 -.581E+02   0.136E-03 -.493E+00 0.108E+01   0.197E-04 -.187E-02 0.367E-01
   -.485E-02 -.274E+02 -.186E+03   0.379E-02 0.264E+02 0.187E+03   0.388E-03 0.976E+00 -.100E+01   0.320E-03 0.219E-03 0.483E-01
   -.108E-02 0.805E+01 0.191E+03   0.518E-03 -.960E+01 -.193E+03   0.387E-04 0.417E+00 0.909E-01   0.426E-03 0.855E-02 0.333E-01
   -.139E-02 0.532E+00 -.700E+02   0.159E-02 0.315E+00 0.671E+02   0.107E-03 -.541E+00 0.221E+01   -.709E-04 0.582E-02 0.389E-01
   -.980E-03 -.103E+02 -.307E+03   0.671E-03 0.114E+02 0.304E+03   0.152E-03 -.105E+01 0.320E+01   -.201E-03 -.737E-02 0.281E-01
   -.308E-03 0.821E+02 0.406E+03   0.209E-03 -.775E+02 -.404E+03   0.653E-04 -.289E+01 -.276E+01   -.631E-04 -.553E-02 0.132E-01
   0.164E-03 -.115E+02 -.383E+03   -.179E-06 0.149E+02 0.380E+03   0.185E-02 -.349E+01 0.238E+01   -.584E-03 0.303E-01 0.166E-01
   0.910E-03 0.188E+02 0.290E+03   0.907E-03 -.185E+02 -.292E+03   -.127E-03 0.103E+00 -.288E+00   -.148E-02 0.234E-02 0.237E-01
   -.167E-03 0.125E+02 0.563E+02   -.623E-04 -.119E+02 -.581E+02   -.974E-04 -.491E+00 0.107E+01   -.166E-03 0.605E-02 0.323E-01
   0.562E-02 -.274E+02 -.186E+03   -.382E-02 0.264E+02 0.187E+03   -.212E-02 0.945E+00 -.991E+00   -.846E-03 -.350E-02 0.528E-01
   0.142E-02 0.805E+01 0.191E+03   0.255E-04 -.959E+01 -.193E+03   -.586E-04 0.417E+00 0.909E-01   -.112E-02 0.138E-02 0.348E-01
   -.762E-03 0.490E+00 -.700E+02   0.728E-03 0.352E+00 0.671E+02   0.287E-04 -.540E+00 0.221E+01   -.465E-03 0.977E-02 0.374E-01
   -.535E-02 -.103E+02 -.307E+03   0.354E-02 0.114E+02 0.304E+03   0.980E-03 -.106E+01 0.320E+01   -.112E-03 0.726E-03 0.258E-01
   0.276E-03 0.820E+02 0.406E+03   0.842E-04 -.775E+02 -.404E+03   -.660E-04 -.289E+01 -.276E+01   -.228E-03 0.181E-02 0.115E-01
   0.561E-02 -.178E+02 -.941E+02   -.616E-02 0.196E+02 0.920E+02   0.173E-02 -.200E+01 0.284E+01   -.144E-02 0.870E-02 0.765E-01
   0.103E-01 -.168E+02 -.529E+03   -.104E-01 0.186E+02 0.530E+03   -.148E-02 -.183E+01 -.734E+00   -.372E-04 0.146E-01 0.414E-01
   0.295E-02 0.573E+02 0.647E+03   -.148E-02 -.515E+02 -.662E+03   -.167E-03 -.690E+01 0.148E+02   -.149E-02 0.218E-02 0.165E-01
   0.111E-01 0.393E+02 0.314E+03   -.112E-01 -.402E+02 -.316E+03   -.115E-02 0.766E+00 0.305E+01   0.848E-03 -.389E-02 0.587E-01
   0.606E-02 0.142E+02 0.912E+02   -.529E-02 -.135E+02 -.950E+02   -.432E-04 -.108E+01 0.561E+01   -.795E-03 0.296E-02 0.638E-01
   0.142E-01 -.281E+02 -.330E+03   -.152E-01 0.231E+02 0.328E+03   0.152E-03 0.504E+01 0.196E+01   -.420E-03 -.151E-01 0.621E-01
   0.193E-01 -.104E+03 -.655E+03   -.151E-01 0.119E+03 0.668E+03   -.301E-02 -.157E+02 -.136E+02   -.155E-02 -.943E-03 0.232E-01
   0.213E-02 0.133E+02 0.526E+03   -.773E-03 -.110E+02 -.538E+03   0.118E-03 -.204E+01 0.129E+02   -.153E-02 0.106E-01 0.361E-01
   0.288E-01 -.178E+02 -.941E+02   -.343E-01 0.196E+02 0.920E+02   0.147E-02 -.199E+01 0.284E+01   0.212E-02 0.506E-02 0.777E-01
   -.200E-01 -.168E+02 -.529E+03   0.382E-01 0.186E+02 0.530E+03   -.186E-01 -.183E+01 -.734E+00   0.684E-03 0.286E-01 0.380E-01
   -.914E-03 0.573E+02 0.647E+03   -.851E-03 -.515E+02 -.662E+03   -.693E-04 -.690E+01 0.148E+02   0.190E-02 0.665E-02 0.187E-01
   0.821E-03 0.393E+02 0.314E+03   -.392E-03 -.402E+02 -.316E+03   0.291E-04 0.764E+00 0.304E+01   -.405E-03 0.133E-01 0.501E-01
[...]
   -.584E-03 0.573E+02 0.647E+03   0.339E-03 -.515E+02 -.662E+03   0.261E-04 -.690E+01 0.148E+02   0.267E-03 0.296E-02 0.167E-01
   -.822E-03 0.393E+02 0.314E+03   0.126E-02 -.402E+02 -.316E+03   0.216E-03 0.766E+00 0.305E+01   -.557E-03 -.237E-02 0.584E-01
   -.750E-02 0.142E+02 0.912E+02   0.653E-02 -.135E+02 -.950E+02   0.274E-03 -.108E+01 0.561E+01   0.832E-03 0.258E-02 0.643E-01
   -.166E-01 -.281E+02 -.330E+03   0.181E-01 0.231E+02 0.328E+03   0.967E-03 0.504E+01 0.195E+01   -.150E-03 -.164E-01 0.627E-01
   -.118E-02 -.104E+03 -.655E+03   0.351E-03 0.119E+03 0.668E+03   0.776E-03 -.157E+02 -.136E+02   0.138E-03 -.113E-02 0.233E-01
   -.272E-02 0.133E+02 0.526E+03   0.943E-03 -.110E+02 -.538E+03   -.748E-04 -.204E+01 0.129E+02   0.190E-02 0.108E-01 0.366E-01
   0.466E-02 -.178E+02 -.941E+02   -.188E-02 0.196E+02 0.920E+02   -.143E-02 -.199E+01 0.284E+01   -.149E-02 0.556E-02 0.792E-01
   0.386E-02 -.168E+02 -.529E+03   -.113E-01 0.186E+02 0.530E+03   0.823E-02 -.183E+01 -.732E+00   -.508E-03 0.282E-01 0.381E-01
   0.630E-03 0.573E+02 0.647E+03   0.768E-04 -.515E+02 -.662E+03   0.915E-04 -.690E+01 0.148E+02   -.797E-03 0.569E-02 0.185E-01
   -.794E-03 0.393E+02 0.314E+03   0.618E-03 -.402E+02 -.316E+03   0.463E-03 0.765E+00 0.304E+01   -.162E-03 0.119E-01 0.506E-01
   -.338E-03 0.141E+02 0.912E+02   0.140E-02 -.134E+02 -.950E+02   0.898E-04 -.108E+01 0.561E+01   -.112E-02 0.110E-01 0.575E-01
   0.185E-01 -.281E+02 -.330E+03   -.286E-01 0.231E+02 0.328E+03   0.718E-02 0.505E+01 0.195E+01   0.143E-05 -.296E-02 0.564E-01
   0.470E-02 -.104E+03 -.655E+03   0.162E-03 0.119E+03 0.668E+03   -.303E-02 -.157E+02 -.136E+02   -.151E-02 -.215E-02 0.200E-01
   -.107E-02 0.133E+02 0.526E+03   0.291E-02 -.110E+02 -.538E+03   0.670E-03 -.204E+01 0.129E+02   -.253E-02 0.392E-03 0.394E-01
   0.125E-02 0.184E+03 -.194E+03   -.139E-12 0.146E-12 -.125E-11   0.217E-02 -.184E+03 0.191E+03   -.734E-05 0.444E+00 0.364E+01

 POSITION                                       TOTAL-FORCE (eV/Angst)
      0.00006      3.99602     17.95540         0.000917     -0.002186     -0.003226
      0.00000      3.27729     12.48649         0.000156      0.393761     -2.044506
      0.00000      0.78727     14.59935         0.000084      0.131498     -0.792078
      0.00011      6.17023     16.10014        -0.000611      0.003135     -0.003908
      1.63282      6.01632     13.19078         0.000467     -1.131921     -1.547031
      1.63282      3.52630     15.30363         0.000354      0.308450     -0.675385
      1.63283      1.04815     17.25101         0.002076      0.004677      0.001304
      1.63282      0.53827     11.78221         0.000262      1.663089      0.150051
      0.00000     11.96265     17.25100        -0.001228      0.001732     -0.000940
      0.00000     11.24537     11.78221        -0.000172      0.393619     -2.043499
      0.00000      8.75534     13.89506         0.000074      0.132165     -0.793634
     -0.00011     14.13853     15.39621         0.003296     -0.016595     -0.001740
      1.63282     13.98439     12.48649        -0.000989     -1.131141     -1.545320
      1.63282     11.49437     14.59935         0.000593      0.309789     -0.675290
      1.63299      9.01605     16.54656        -0.000738      0.004274      0.000954
      1.63282      8.50634     11.07792        -0.000272      1.662957      0.151315
      3.26556      3.99613     17.95544         0.000259      0.000345     -0.002974
      3.26563      3.27729     12.48649        -0.000011      0.394295     -2.043980
      3.26563      0.78727     14.59935         0.000081      0.132673     -0.793376
      3.26558      6.17002     16.10007         0.000780      0.006835     -0.005372
      4.89845      6.01632     13.19078        -0.000437     -1.131796     -1.547022
      4.89845      3.52630     15.30363        -0.000623      0.308421     -0.675370
      4.89842      1.04831     17.25103        -0.001729      0.005223      0.001625
      4.89845      0.53827     11.78221        -0.000234      1.663050      0.150151
      3.26579     11.96479     17.25090        -0.000533     -0.002276     -0.000755
      3.26563     11.24537     11.78221        -0.000103      0.392717     -2.043108
      3.26563      8.75534     13.89506         0.000380      0.132597     -0.793658
      3.26564     14.13873     15.39578        -0.000093     -0.024705     -0.013232
      4.89845     13.98439     12.48649         0.000649     -1.130931     -1.545462
      4.89845     11.49437     14.59935        -0.000050      0.309453     -0.675139
      4.89829      9.01620     16.54676         0.003192      0.004177      0.000673
      4.89845      8.50634     11.07792         0.000140      1.662982      0.151645
      6.53131      3.99625     17.95533        -0.001256     -0.004226     -0.002695
      6.53127      3.27729     12.48649        -0.000251      0.393903     -2.044351
      6.53127      0.78727     14.59935        -0.000247      0.131957     -0.792382
      6.53124      6.16987     16.10007        -0.000390      0.007598     -0.005180
      8.16409      6.01632     13.19078        -0.000134     -1.131642     -1.546889
      8.16409      3.52630     15.30363         0.000201      0.308760     -0.675410
      8.16412      1.04830     17.25110        -0.000393      0.005086      0.001480
      8.16409      0.53827     11.78221        -0.000133      1.662972      0.149925
      6.53129     11.96344     17.25122         0.001390     -0.010740     -0.004593
      6.53127     11.24537     11.78221         0.000173      0.393288     -2.043254
      6.53127      8.75534     13.89506        -0.000528      0.132238     -0.793130
      6.53137     14.13858     15.39612        -0.001199     -0.028472      0.001197
      8.16409     13.98439     12.48649         0.000233     -1.131424     -1.545798
      8.16409     11.49437     14.59935        -0.000506      0.308651     -0.675116
      8.16401      9.01565     16.54642        -0.000970      0.000098      0.001140
      8.16409      8.50634     11.07792         0.000031      1.662936      0.151207
      1.63282      5.51831     15.12756        -0.000296     -0.151807      0.810521
      1.63292      2.96818     17.45509        -0.001653     -0.001843      0.002153
      1.63282      2.53029     11.60614        -0.000233     -1.085331      0.356015
      1.63282      0.04026     13.71899        -0.000440     -0.071039      0.776767
      0.00000      2.77929     14.42328        -0.000101     -0.366154      1.827203
      0.00002      0.24016     16.60862        -0.001368      0.015775     -0.003216
      0.00031      5.85431     18.03184        -0.000316      0.015589      0.007025
      0.00000      5.26931     12.31042        -0.000095      0.284298      1.134257
      1.63282     13.48639     14.42328        -0.001891     -0.149063      0.813195
      1.63325     10.93614     16.75076         0.000179     -0.002723      0.002037
      1.63282     10.49836     10.90185         0.000034     -1.085196      0.354649
      1.63282      8.00834     13.01471         0.000017     -0.071156      0.775659
[...]
      8.16413      2.96828     17.45522        -0.000535     -0.001745      0.001617
      8.16409      2.53029     11.60614         0.000012     -1.085283      0.355929
      8.16409      0.04026     13.71899         0.000062     -0.070953      0.777273
      6.53127      2.77929     14.42328         0.000101     -0.365953      1.826958
      6.53120      0.24044     16.60852         0.002274      0.012798     -0.002470
      6.53124      5.85447     18.03175         0.000048      0.016611      0.008268
      6.53127      5.26931     12.31042         0.000018      0.284290      1.134315
      8.16409     13.48639     14.42328        -0.000172     -0.149173      0.813936
      8.16393     10.93538     16.75085         0.000225      0.002300      0.002163
      8.16409     10.49836     10.90185        -0.000034     -1.085184      0.354791
      8.16409      8.00834     13.01471         0.000089     -0.071190      0.775604
      6.53127     10.74736     13.71899        -0.000003     -0.365590      1.826321
      6.53116      8.20823     15.90375        -0.002903      0.012021     -0.000449
      6.53168     13.82153     17.32807         0.000290      0.025451      0.002717
      6.53127     13.23739     11.60614        -0.000055      0.284152      1.133857
    total drift:                                0.003407      0.311891      0.678228

  FREE ENERGIE OF THE ION-ELECTRON SYSTEM (eV)
  free  energy   TOTEN  =      -493.14394052 eV

  energy  without entropy=     -493.11952731  energy(sigma->0) =     -493.13173391

 d Force = 0.8682959E-05[ 0.435E-05, 0.130E-04]  d Energy = 0.7309907E-05 0.137E-05
 d Force =-0.4574291E+00[-0.457E+00,-0.457E+00]  d Ewald  =-0.4574291E+00 0.959E-09

 reached required accuracy - stopping structural energy minimisation